(set-logic ALL)
(declare-fun var0 () String)
(assert (str.in_re var0 (re.++ (re.* (re.+ (str.to_re "00"))) (re.++ (re.* (re.* (str.to_re "111"))) (re.++ (re.* (re.+ (str.to_re "2"))) (re.++ (re.+ (re.* (str.to_re "33"))) (re.++ (re.union (re.+ (str.to_re "4")) (re.union (str.to_re "5") (str.to_re "6"))) (re.++ (re.union (re.+ (str.to_re "7")) (re.+ (str.to_re "888"))) (re.++ (re.union (re.+ (str.to_re "999")) (re.+ (str.to_re "aa"))) (re.++ (re.* (re.* (str.to_re "bbb"))) (re.++ (re.* (re.+ (str.to_re "cc"))) (re.++ (re.+ (re.union (str.to_re "dd") (str.to_re "ee"))) (re.++ (re.* (re.* (str.to_re "f"))) (re.++ (re.union (re.* (str.to_re "gg")) (re.union (str.to_re "hhh") (str.to_re "iii"))) (re.++ (re.* (re.+ (str.to_re "j"))) (re.++ (re.union (re.union (str.to_re "kk") (str.to_re "lll")) (re.union (str.to_re "mmm") (str.to_re "nnn"))) (re.++ (re.union (re.+ (str.to_re "o")) (re.* (str.to_re "ppp"))) (re.++ (re.+ (re.* (str.to_re "qqq"))) (re.++ (re.+ (re.union (str.to_re "r") (str.to_re "ss"))) (re.++ (re.+ (re.union (str.to_re "t") (str.to_re "uu"))) (re.++ (re.+ (re.* (str.to_re "v"))) (re.++ (re.* (re.* (str.to_re "www"))) (re.++ (re.+ (re.union (str.to_re "xx") (str.to_re "yy"))) (re.++ (re.* (re.* (str.to_re "zz"))) (re.++ (re.* (re.+ (str.to_re "AAA"))) (re.++ (re.union (re.union (str.to_re "BB") (str.to_re "CCC")) (re.* (str.to_re "DD"))) (re.++ (re.* (re.+ (str.to_re "EE"))) (re.++ (re.union (re.+ (str.to_re "FF")) (re.union (str.to_re "G") (str.to_re "H"))) (re.++ (re.* (re.union (str.to_re "II") (str.to_re "J"))) (re.++ (re.* (re.* (str.to_re "KK"))) (re.union (re.* (str.to_re "LL")) (re.* (str.to_re "MMM")))))))))))))))))))))))))))))))))
(check-sat)